p wcnf 189 284 285 
1 43 -48 0 
1 -163 -131 0 
1 156 25 0 
1 44 -90 0 
1 -159 137 0 
1 93 112 0 
1 -31 81 0 
1 -3 62 0 
1 163 -177 0 
1 -172 70 0 
1 -18 -54 0 
1 6 -27 0 
1 72 -63 0 
1 -48 156 0 
1 119 -78 0 
1 3 64 0 
1 42 -160 0 
1 -167 148 0 
1 -138 -120 0 
1 -38 173 0 
1 25 -101 0 
1 -188 -101 0 
1 93 -181 0 
1 -88 -128 0 
1 134 -179 0 
1 -91 155 0 
1 -179 31 0 
1 -151 186 0 
1 177 85 0 
1 129 47 0 
1 8 101 0 
1 -104 176 0 
1 109 -147 0 
1 50 84 0 
1 -41 -76 0 
1 -178 -116 0 
1 -174 -77 0 
1 49 120 0 
1 -181 169 0 
1 141 -111 0 
1 -122 -51 0 
1 -158 106 0 
1 58 -189 0 
1 74 13 0 
1 -112 99 0 
1 -134 -75 0 
1 -178 -140 0 
1 75 -184 0 
1 23 -80 0 
1 -181 62 0 
1 142 114 0 
1 142 152 0 
1 103 163 0 
1 -55 -70 0 
1 -161 -76 0 
1 -51 -23 0 
1 122 123 0 
1 -129 -133 0 
1 38 71 0 
1 121 68 0 
1 62 -120 0 
1 -172 20 0 
1 134 72 0 
1 76 78 0 
1 50 145 0 
1 54 2 0 
1 -174 -66 0 
1 -177 -157 0 
1 -164 -86 0 
1 -170 26 0 
1 11 -129 0 
1 149 -106 0 
1 -24 -41 0 
1 151 168 0 
1 -81 -166 0 
1 -155 25 0 
1 118 -141 0 
1 37 50 0 
1 -132 133 0 
1 98 -138 0 
1 -118 176 0 
1 -44 133 0 
1 80 148 0 
1 186 140 0 
1 35 155 0 
1 63 -172 0 
1 -14 -7 0 
1 8 131 0 
1 -184 95 0 
1 -51 40 0 
1 62 143 0 
1 185 -124 0 
1 -30 63 0 
1 101 -29 0 
1 -8 -149 0 
1 155 -13 0 
1 -39 -101 0 
1 105 -41 0 
1 106 -41 0 
1 -142 -23 0 
1 32 -26 0 
1 -58 20 0 
1 -1 -130 0 
1 174 78 0 
1 -130 57 0 
1 -99 90 0 
1 28 -32 0 
1 -34 -17 0 
1 97 142 0 
1 -126 -31 0 
1 85 140 0 
1 -165 -5 0 
1 -4 -102 0 
1 -87 -143 0 
1 -39 -65 0 
1 8 87 0 
1 -26 -83 0 
1 91 154 0 
1 -151 -82 0 
1 -178 168 0 
1 -21 13 0 
1 110 -1 0 
1 -181 53 0 
1 -140 25 0 
1 -153 -134 0 
1 -42 37 0 
1 39 22 0 
1 138 57 0 
1 95 -116 0 
1 71 -9 0 
1 161 128 0 
1 15 88 0 
1 -23 -69 0 
1 -99 -27 0 
1 129 -96 0 
1 -28 139 0 
1 64 -54 0 
1 132 112 0 
1 -27 103 0 
1 -174 -172 0 
1 175 117 0 
1 86 -144 0 
1 -3 -16 0 
1 -170 -96 0 
1 18 -117 0 
1 110 -126 0 
1 81 62 0 
1 179 103 0 
1 -104 120 0 
1 -124 149 0 
1 172 -54 0 
1 183 -152 0 
1 -137 140 0 
1 -19 -108 0 
1 -13 174 0 
1 96 -17 0 
1 -35 105 0 
1 -75 133 0 
1 -21 -51 0 
1 -12 -95 0 
1 -9 -134 0 
1 25 -105 0 
1 -106 -73 0 
1 87 99 0 
1 59 15 0 
1 -137 -87 0 
1 -165 -114 0 
1 101 189 0 
1 38 -75 0 
1 145 137 0 
1 -113 -161 0 
1 175 -91 0 
1 -25 -149 0 
1 73 117 0 
1 139 -51 0 
1 -113 3 0 
1 -138 63 0 
1 169 65 0 
1 -172 12 0 
1 -78 88 0 
1 -139 -169 0 
1 182 -183 0 
1 -22 58 0 
1 40 -183 0 
1 -72 23 0 
1 -183 -146 0 
1 9 -168 0 
1 34 -148 0 
1 170 -7 0 
1 130 -112 0 
1 60 92 0 
1 -93 63 0 
1 112 28 0 
1 -71 48 0 
1 -28 -128 0 
1 187 169 0 
1 -149 -127 0 
1 18 176 0 
1 133 -162 0 
1 -97 7 0 
1 101 -49 0 
1 110 30 0 
1 -7 -34 0 
1 41 40 0 
1 -71 105 0 
1 152 170 0 
1 82 17 0 
1 87 58 0 
1 15 57 0 
1 -130 -162 0 
1 -97 124 0 
1 61 -18 0 
1 -175 -23 0 
1 -9 -77 0 
1 32 9 0 
1 -32 56 0 
1 93 167 0 
1 -91 -47 0 
1 -118 35 0 
1 183 24 0 
1 -40 51 0 
1 170 -98 0 
1 -86 -135 0 
1 -146 14 0 
1 -42 27 0 
1 107 125 0 
1 -177 27 0 
1 -76 -139 0 
1 -126 20 0 
1 -121 96 0 
1 -53 -133 0 
1 -68 -47 0 
1 -93 142 0 
1 139 45 0 
1 -97 83 0 
1 -124 -121 0 
1 -108 -112 0 
1 -94 99 0 
1 -35 82 0 
1 112 -43 0 
1 -124 -79 0 
1 -187 165 0 
1 -136 154 0 
1 30 -22 0 
1 -155 -134 0 
1 -57 -145 0 
1 155 1 0 
1 -140 156 0 
1 -183 -66 0 
1 53 115 0 
1 178 172 0 
1 -149 -60 0 
1 168 157 0 
1 -27 -35 0 
1 151 -170 0 
1 -151 -148 0 
1 160 -180 0 
1 51 -115 0 
1 60 144 0 
1 -165 108 0 
1 -43 -144 0 
1 174 104 0 
1 -53 -187 0 
1 -126 -32 0 
1 16 -7 0 
1 -24 124 0 
1 39 -21 0 
1 158 -17 0 
1 -102 -123 0 
1 -91 15 0 
1 -84 -162 0 
1 188 -158 0 
1 -130 -15 0 
1 -92 -153 0 
1 47 151 0 
1 -153 -36 0 
1 46 -162 0 
1 -177 73 0 
1 61 94 0 
1 -65 -24 0 
1 62 -9 0 
1 81 -154 0 
1 64 188 0 
1 -102 -121 0 
